Route #1: 16 49 24 56 23 63
Route #2: 73 64 42 41 43 1
Route #3: 6 33 2 68
Route #4: 62 22 28 21 74
Route #5: 29 5 47 48 30
Route #6: 37 20 70 60 71 36 69 61
Route #7: 4 75
Route #8: 45 15 57 54 13 27
Route #9: 46 52 34 67
Route #10: 35 53 14 19 8
Route #11: 11 66 59
Route #12: 7 65 38 10 58
Route #13: 26 12 40 17
Route #14: 72 31 25 55 18 50 44
Route #15: 51 3 32 9 39
Cost 1032
Time 0.136549
